c Generated map
c Size: 9 * 9, weights in range: 1 to 10, walls: False, with ratio 0.0
c dim 8 of 8
c
p sp 81 144
c graph contains 81 nodes and 144 arcs
c
a 1 10 6
a 10 1 6
a 1 2 7
a 2 1 7
a 2 11 9
a 11 2 9
a 2 3 5
a 3 2 5
a 3 12 9
a 12 3 9
a 3 4 8
a 4 3 8
a 4 13 10
a 13 4 10
a 4 5 6
a 5 4 6
a 5 14 1
a 14 5 1
a 5 6 9
a 6 5 9
a 6 15 2
a 15 6 2
a 6 7 7
a 7 6 7
a 7 16 2
a 16 7 2
a 7 8 5
a 8 7 5
a 8 17 5
a 17 8 5
a 8 9 6
a 9 8 6
a 9 18 7
a 18 9 7
a 10 19 10
a 19 10 10
a 10 11 3
a 11 10 3
a 11 20 10
a 20 11 10
a 11 12 10
a 12 11 10
a 12 21 2
a 21 12 2
a 12 13 9
a 13 12 9
a 13 22 8
a 22 13 8
a 13 14 7
a 14 13 7
a 14 23 6
a 23 14 6
a 14 15 6
a 15 14 6
a 15 24 7
a 24 15 7
a 15 16 1
a 16 15 1
a 16 25 2
a 25 16 2
a 16 17 10
a 17 16 10
a 17 26 4
a 26 17 4
a 17 18 1
a 18 17 1
a 18 27 7
a 27 18 7
a 19 28 2
a 28 19 2
a 19 20 5
a 20 19 5
a 20 29 8
a 29 20 8
a 20 21 2
a 21 20 2
a 21 30 5
a 30 21 5
a 21 22 3
a 22 21 3
a 22 31 4
a 31 22 4
a 22 23 9
a 23 22 9
a 23 32 1
a 32 23 1
a 23 24 7
a 24 23 7
a 24 33 9
a 33 24 9
a 24 25 9
a 25 24 9
a 25 34 2
a 34 25 2
a 25 26 2
a 26 25 2
a 26 35 7
a 35 26 7
a 26 27 10
a 27 26 10
a 27 36 5
a 36 27 5
a 28 37 5
a 37 28 5
a 28 29 3
a 29 28 3
a 29 38 7
a 38 29 7
a 29 30 3
a 30 29 3
a 30 39 8
a 39 30 8
a 30 31 3
a 31 30 3
a 31 40 7
a 40 31 7
a 31 32 4
a 32 31 4
a 32 41 6
a 41 32 6
a 32 33 7
a 33 32 7
a 33 42 8
a 42 33 8
a 33 34 7
a 34 33 7
a 34 43 2
a 43 34 2
a 34 35 3
a 35 34 3
a 35 44 10
a 44 35 10
a 35 36 4
a 36 35 4
a 36 45 6
a 45 36 6
a 37 46 2
a 46 37 2
a 37 38 10
a 38 37 10
a 38 47 7
a 47 38 7
a 38 39 6
a 39 38 6
a 39 48 3
a 48 39 3
a 39 40 4
a 40 39 4
a 40 49 8
a 49 40 8
a 40 41 9
a 41 40 9
a 41 50 10
a 50 41 10
a 41 42 8
a 42 41 8
a 42 51 7
a 51 42 7
a 42 43 7
a 43 42 7
a 43 52 4
a 52 43 4
a 43 44 7
a 44 43 7
a 44 53 4
a 53 44 4
a 44 45 3
a 45 44 3
a 45 54 3
a 54 45 3
a 46 55 3
a 55 46 3
a 46 47 4
a 47 46 4
a 47 56 9
a 56 47 9
a 47 48 10
a 48 47 10
a 48 57 2
a 57 48 2
a 48 49 3
a 49 48 3
a 49 58 10
a 58 49 10
a 49 50 3
a 50 49 3
a 50 59 3
a 59 50 3
a 50 51 4
a 51 50 4
a 51 60 5
a 60 51 5
a 51 52 1
a 52 51 1
a 52 61 10
a 61 52 10
a 52 53 6
a 53 52 6
a 53 62 2
a 62 53 2
a 53 54 6
a 54 53 6
a 54 63 7
a 63 54 7
a 55 64 2
a 64 55 2
a 55 56 2
a 56 55 2
a 56 65 8
a 65 56 8
a 56 57 9
a 57 56 9
a 57 66 5
a 66 57 5
a 57 58 6
a 58 57 6
a 58 67 5
a 67 58 5
a 58 59 3
a 59 58 3
a 59 68 9
a 68 59 9
a 59 60 5
a 60 59 5
a 60 69 3
a 69 60 3
a 60 61 9
a 61 60 9
a 61 70 5
a 70 61 5
a 61 62 7
a 62 61 7
a 62 71 4
a 71 62 4
a 62 63 3
a 63 62 3
a 63 72 6
a 72 63 6
a 64 73 5
a 73 64 5
a 64 65 2
a 65 64 2
a 65 74 9
a 74 65 9
a 65 66 10
a 66 65 10
a 66 75 9
a 75 66 9
a 66 67 5
a 67 66 5
a 67 76 7
a 76 67 7
a 67 68 7
a 68 67 7
a 68 77 6
a 77 68 6
a 68 69 1
a 69 68 1
a 69 78 4
a 78 69 4
a 69 70 1
a 70 69 1
a 70 79 1
a 79 70 1
a 70 71 8
a 71 70 8
a 71 80 7
a 80 71 7
a 71 72 5
a 72 71 5
a 72 81 2
a 81 72 2
a 73 74 4
a 74 73 4
a 74 75 1
a 75 74 1
a 75 76 9
a 76 75 9
a 76 77 4
a 77 76 4
a 77 78 7
a 78 77 7
a 78 79 2
a 79 78 2
a 79 80 9
a 80 79 9
a 80 81 5
a 81 80 5
